Ti40Nb12Al2
3.33978
 -3.00000000  0.00000000  0.00000000
  0.00000000  0.00000000  3.00000000
  0.00000000  3.00000000  0.00000000
  Ti  Nb  Fe
  40  12  02
Selective dynamics
Direct
  0.861111  0.861111  0.861111  T T T 
  0.833333  0.833333  0.166667  T T T 
  0.805556  0.472222  0.805556  T T T 
  0.833333  0.500000  0.500000  T T T 
  0.694444  0.694444  0.694444  T T T 
  0.638889  0.638889  0.305556  T T T 
  0.500000  0.833333  0.500000  T T T 
  0.666667  0.666667  1.000000  T T T 
  0.833333  0.166667  0.833333  T T T 
  0.638889  0.305556  0.638889  T T T 
  0.500000  0.500000  0.833333  T T T 
  0.666667  0.333333  0.333333  T T T 
  0.527778  0.527778  0.527778  T T T 
  0.166667  0.833333  0.833333  T T T 
  0.694444  0.361111  1.027778  T T T 
  0.333333  0.666667  0.333333  T T T 
  0.194444  0.861111  0.527778  T T T 
  0.138889  0.805556  0.138889  T T T 
  0.527778  0.194444  0.861111  T T T 
  0.694444  1.027778  0.361111  T T T 
  0.194444  0.527778  0.861111  T T T 
  0.500000  0.166667  0.166667  T T T 
  0.361111  0.361111  0.361111  T T T 
  0.138889  0.472222  0.472222  T T T 
  1.000000  0.666667  0.666667  T T T 
  0.305556  0.305556  0.972222  T T T 
  0.166667  0.500000  0.166667  T T T 
  1.027778  0.694444  0.361111  T T T 
  0.972222  0.638889  0.972222  T T T 
  0.361111  1.027778  0.694444  T T T 
  0.138889  0.138889  0.805556  T T T 
  0.305556  0.972222  0.305556  T T T 
  0.166667  0.166667  0.500000  T T T 
  1.027778  0.361111  0.694444  T T T 
  0.333333  1.000000  1.000000  T T T 
  0.194444  0.194444  0.194444  T T T 
  0.972222  0.305556  0.305556  T T T 
  1.000000  0.333333  1.000000  T T T 
  1.000000  1.000000  0.333333  T T T 
  1.027778  1.027778  1.027778  T T T 
  0.861111  0.527778  0.194444  T T T 
  0.861111  0.194444  0.527778  T T T 
  0.805556  0.138889  0.138889  T T T 
  0.305556  0.638889  0.638889  T T T 
  0.472222  0.472222  0.138889  T T T 
  0.361111  0.694444  1.027778  T T T 
  0.666667  1.000000  0.666667  T T T 
  0.472222  0.138889  0.472222  T T T 
  0.333333  0.333333  0.666667  T T T 
  0.972222  0.972222  0.638889  T T T 
  0.527778  0.861111  0.194444  T T T 
  0.638889  0.972222  0.972222  T T T 
  0.805556  0.805556  0.472222  T T T 
  0.472222  0.805556  0.805556  T T T 
